min: c;

c = 3.55191077391517 * u2_t7_h3 + 2.75584536645084 * u2_t7_h4 + 3.09955431584173 * u2_t2_h5 + 3.09955431584173 * u2_t3_h5 + 3.09955431584173 * u2_t7_h5 + 3.97108132002539 * u2_t2_h6 + 3.97108132002539 * u2_t3_h6 + 3.97108132002539 * u2_t4_h6 + 3.97108132002539 * u2_t7_h6 + 3.97108132002539 * u2_t10_h6 + 3.6054535318211 * u2_t2_h7 + 3.6054535318211 * u2_t3_h7 + 3.6054535318211 * u2_t4_h7 + 3.6054535318211 * u2_t7_h7 + 3.6054535318211 * u2_t10_h7 + 5.51202522020883 * u2_t2_h8 + 5.51202522020883 * u2_t3_h8 + 5.51202522020883 * u2_t4_h8 + 5.51202522020883 * u2_t7_h8 + 5.51202522020883 * u2_t10_h8 + 4.74617152874016 * u2_t2_h9 + 4.74617152874016 * u2_t3_h9 + 4.74617152874016 * u2_t4_h9 + 4.74617152874016 * u2_t7_h9 + 4.74617152874016 * u2_t10_h9 + 5.53752438981844 * u2_t2_h10 + 5.53752438981844 * u2_t3_h10 + 5.53752438981844 * u2_t4_h10 + 5.53752438981844 * u2_t7_h10 + 5.53752438981844 * u2_t10_h10 + 4.32337043657653 * u2_t1_h11 + 4.32337043657653 * u2_t2_h11 + 4.32337043657653 * u2_t3_h11 + 4.32337043657653 * u2_t4_h11 + 4.32337043657653 * u2_t7_h11 + 4.32337043657653 * u2_t10_h11 + 5.79955857843981 * u2_t1_h12 + 5.79955857843981 * u2_t3_h12 + 5.79955857843981 * u2_t4_h12 + 5.79955857843981 * u2_t7_h12 + 4.90044864856185 * u2_t1_h13 + 4.90044864856185 * u2_t3_h13 + 4.90044864856185 * u2_t4_h13 + 4.90044864856185 * u2_t7_h13 + 4.90044864856185 * u2_t9_h13 + 5.17737120450916 * u2_t1_h14 + 5.17737120450916 * u2_t3_h14 + 5.17737120450916 * u2_t4_h14 + 5.17737120450916 * u2_t7_h14 + 5.17737120450916 * u2_t9_h14 + 6.44789224988034 * u2_t1_h15 + 6.44789224988034 * u2_t3_h15 + 6.44789224988034 * u2_t4_h15 + 6.44789224988034 * u2_t7_h15 + 6.44789224988034 * u2_t9_h15 + 5.88107251986944 * u2_t1_h16 + 5.88107251986944 * u2_t3_h16 + 5.88107251986944 * u2_t4_h16 + 5.88107251986944 * u2_t7_h16 + 5.88107251986944 * u2_t9_h16 + 6.48791070549549 * u2_t1_h17 + 6.48791070549549 * u2_t3_h17 + 6.48791070549549 * u2_t4_h17 + 6.48791070549549 * u2_t7_h17 + 6.48791070549549 * u2_t9_h17 + 6.500905464229 * u2_t1_h18 + 6.500905464229 * u2_t3_h18 + 6.500905464229 * u2_t4_h18 + 6.500905464229 * u2_t6_h18 + 6.500905464229 * u2_t7_h18 + 5.3473036847247 * u2_t1_h19 + 5.3473036847247 * u2_t3_h19 + 5.3473036847247 * u2_t4_h19 + 5.3473036847247 * u2_t5_h19 + 5.3473036847247 * u2_t6_h19 + 5.3473036847247 * u2_t7_h19 + 5.29789628961896 * u2_t1_h20 + 5.29789628961896 * u2_t3_h20 + 5.29789628961896 * u2_t4_h20 + 5.29789628961896 * u2_t6_h20 + 5.29789628961896 * u2_t7_h20 + 5.09988060316776 * u2_t1_h21 + 5.09988060316776 * u2_t3_h21 + 5.09988060316776 * u2_t6_h21 + 5.09988060316776 * u2_t7_h21 + 5.09988060316776 * u2_t8_h21 + 5.56887122759636 * u2_t1_h22 + 5.56887122759636 * u2_t3_h22 + 5.56887122759636 * u2_t7_h22 + 5.56887122759636 * u2_t8_h22 + 5.56096033388904 * u2_t3_h23 + 5.56096033388904 * u2_t7_h23 + 5.56096033388904 * u2_t8_h23;
0 <= u2_t1_h11 <= 1;
0 <= u2_t1_h12 <= 1;
0 <= u2_t1_h13 <= 1;
0 <= u2_t1_h14 <= 1;
0 <= u2_t1_h15 <= 1;
0 <= u2_t1_h16 <= 1;
0 <= u2_t1_h17 <= 1;
0 <= u2_t1_h18 <= 1;
0 <= u2_t1_h19 <= 1;
0 <= u2_t1_h20 <= 1;
0 <= u2_t1_h21 <= 1;
0 <= u2_t1_h22 <= 1;
u2_t1_h11 + u2_t1_h12 + u2_t1_h13 + u2_t1_h14 + u2_t1_h15 + u2_t1_h16 + u2_t1_h17 + u2_t1_h18 + u2_t1_h19 + u2_t1_h20 + u2_t1_h21 + u2_t1_h22 = 2;
0 <= u2_t2_h5 <= 1;
0 <= u2_t2_h6 <= 1;
0 <= u2_t2_h7 <= 1;
0 <= u2_t2_h8 <= 1;
0 <= u2_t2_h9 <= 1;
0 <= u2_t2_h10 <= 1;
0 <= u2_t2_h11 <= 1;
u2_t2_h5 + u2_t2_h6 + u2_t2_h7 + u2_t2_h8 + u2_t2_h9 + u2_t2_h10 + u2_t2_h11 = 2;
0 <= u2_t3_h5 <= 1;
0 <= u2_t3_h6 <= 1;
0 <= u2_t3_h7 <= 1;
0 <= u2_t3_h8 <= 1;
0 <= u2_t3_h9 <= 1;
0 <= u2_t3_h10 <= 1;
0 <= u2_t3_h11 <= 1;
0 <= u2_t3_h12 <= 1;
0 <= u2_t3_h13 <= 1;
0 <= u2_t3_h14 <= 1;
0 <= u2_t3_h15 <= 1;
0 <= u2_t3_h16 <= 1;
0 <= u2_t3_h17 <= 1;
0 <= u2_t3_h18 <= 1;
0 <= u2_t3_h19 <= 1;
0 <= u2_t3_h20 <= 1;
0 <= u2_t3_h21 <= 1;
0 <= u2_t3_h22 <= 1;
0 <= u2_t3_h23 <= 1;
u2_t3_h5 + u2_t3_h6 + u2_t3_h7 + u2_t3_h8 + u2_t3_h9 + u2_t3_h10 + u2_t3_h11 + u2_t3_h12 + u2_t3_h13 + u2_t3_h14 + u2_t3_h15 + u2_t3_h16 + u2_t3_h17 + u2_t3_h18 + u2_t3_h19 + u2_t3_h20 + u2_t3_h21 + u2_t3_h22 + u2_t3_h23 = 1;
0 <= u2_t4_h6 <= 1;
0 <= u2_t4_h7 <= 1;
0 <= u2_t4_h8 <= 1;
0 <= u2_t4_h9 <= 1;
0 <= u2_t4_h10 <= 1;
0 <= u2_t4_h11 <= 1;
0 <= u2_t4_h12 <= 1;
0 <= u2_t4_h13 <= 1;
0 <= u2_t4_h14 <= 1;
0 <= u2_t4_h15 <= 1;
0 <= u2_t4_h16 <= 1;
0 <= u2_t4_h17 <= 1;
0 <= u2_t4_h18 <= 1;
0 <= u2_t4_h19 <= 1;
0 <= u2_t4_h20 <= 1;
u2_t4_h6 + u2_t4_h7 + u2_t4_h8 + u2_t4_h9 + u2_t4_h10 + u2_t4_h11 + u2_t4_h12 + u2_t4_h13 + u2_t4_h14 + u2_t4_h15 + u2_t4_h16 + u2_t4_h17 + u2_t4_h18 + u2_t4_h19 + u2_t4_h20 = 3;
0 <= u2_t5_h19 <= 1;
u2_t5_h19 = 1;
0 <= u2_t6_h18 <= 1;
0 <= u2_t6_h19 <= 1;
0 <= u2_t6_h20 <= 1;
0 <= u2_t6_h21 <= 1;
u2_t6_h18 + u2_t6_h19 + u2_t6_h20 + u2_t6_h21 = 2;
0 <= u2_t7_h3 <= 1;
0 <= u2_t7_h4 <= 1;
0 <= u2_t7_h5 <= 1;
0 <= u2_t7_h6 <= 1;
0 <= u2_t7_h7 <= 1;
0 <= u2_t7_h8 <= 1;
0 <= u2_t7_h9 <= 1;
0 <= u2_t7_h10 <= 1;
0 <= u2_t7_h11 <= 1;
0 <= u2_t7_h12 <= 1;
0 <= u2_t7_h13 <= 1;
0 <= u2_t7_h14 <= 1;
0 <= u2_t7_h15 <= 1;
0 <= u2_t7_h16 <= 1;
0 <= u2_t7_h17 <= 1;
0 <= u2_t7_h18 <= 1;
0 <= u2_t7_h19 <= 1;
0 <= u2_t7_h20 <= 1;
0 <= u2_t7_h21 <= 1;
0 <= u2_t7_h22 <= 1;
0 <= u2_t7_h23 <= 1;
u2_t7_h3 + u2_t7_h4 + u2_t7_h5 + u2_t7_h6 + u2_t7_h7 + u2_t7_h8 + u2_t7_h9 + u2_t7_h10 + u2_t7_h11 + u2_t7_h12 + u2_t7_h13 + u2_t7_h14 + u2_t7_h15 + u2_t7_h16 + u2_t7_h17 + u2_t7_h18 + u2_t7_h19 + u2_t7_h20 + u2_t7_h21 + u2_t7_h22 + u2_t7_h23 = 3;
0 <= u2_t8_h21 <= 1;
0 <= u2_t8_h22 <= 1;
0 <= u2_t8_h23 <= 1;
u2_t8_h21 + u2_t8_h22 + u2_t8_h23 = 2;
0 <= u2_t9_h13 <= 1;
0 <= u2_t9_h14 <= 1;
0 <= u2_t9_h15 <= 1;
0 <= u2_t9_h16 <= 1;
0 <= u2_t9_h17 <= 1;
u2_t9_h13 + u2_t9_h14 + u2_t9_h15 + u2_t9_h16 + u2_t9_h17 = 1;
0 <= u2_t10_h6 <= 1;
0 <= u2_t10_h7 <= 1;
0 <= u2_t10_h8 <= 1;
0 <= u2_t10_h9 <= 1;
0 <= u2_t10_h10 <= 1;
0 <= u2_t10_h11 <= 1;
u2_t10_h6 + u2_t10_h7 + u2_t10_h8 + u2_t10_h9 + u2_t10_h10 + u2_t10_h11 = 2;
